p cnf 159 499
c t mc
-3 1 0
-3 2 0
-1 -2 3 0
-5 -3 0
-5 4 0
3 -4 5 0
9 -7 0
9 8 0
7 -8 -9 0
6 9 -10 0
-6 -9 -10 0
6 -9 10 0
-6 9 10 0
-5 -10 -11 0
5 10 -11 0
-5 10 11 0
5 -10 11 0
-12 9 -13 0
12 -9 -13 0
-12 -9 13 0
12 9 13 0
14 11 0
14 13 0
-11 -13 -14 0
-17 18 -19 0
17 -18 -19 0
-17 -18 19 0
17 18 19 0
20 16 0
20 19 0
-16 -19 -20 0
-2 20 -21 0
2 -20 -21 0
-2 -20 21 0
2 20 21 0
-22 -15 0
-22 21 0
15 -21 22 0
23 -8 0
23 -22 0
8 22 -23 0
24 -14 0
24 -23 0
14 23 -24 0
-25 4 0
-25 1 0
-4 -1 25 0
-26 -25 0
-26 -5 0
25 5 26 0
-28 -27 0
-28 -1 0
27 1 28 0
29 2 0
29 28 0
-2 -28 -29 0
-30 -18 0
-30 -15 0
18 15 30 0
-31 29 0
-31 -30 0
-29 30 31 0
-19 33 -34 0
19 -33 -34 0
-19 -33 34 0
19 33 34 0
-35 -32 0
-35 34 0
32 -34 35 0
35 34 -36 0
-35 -34 -36 0
35 -34 36 0
-35 34 36 0
-38 27 0
-38 37 0
-27 -37 38 0
39 36 0
39 38 0
-36 -38 -39 0
40 31 0
40 -39 0
-31 39 -40 0
19 -32 -41 0
-19 32 -41 0
19 32 41 0
-19 -32 41 0
-44 42 0
-44 43 0
-42 -43 44 0
44 -19 -45 0
-44 19 -45 0
44 19 45 0
-44 -19 45 0
-46 41 0
-46 -45 0
-41 45 46 0
-47 33 0
-47 -33 0
-47 48 -49 0
47 -48 -49 0
-47 -48 49 0
47 48 49 0
50 -46 0
50 -49 0
46 49 -50 0
-40 50 -51 0
40 -50 -51 0
-40 -50 51 0
40 50 51 0
52 26 0
52 -51 0
-26 51 -52 0
55 32 0
55 -54 0
-32 54 -55 0
56 -53 0
56 -55 0
53 55 -56 0
56 -33 -57 0
-56 33 -57 0
56 33 57 0
-56 -33 57 0
-58 15 0
-58 57 0
-15 -57 58 0
59 36 0
59 20 0
-36 -20 -59 0
-60 58 0
-60 59 0
-58 -59 60 0
-1 -45 -61 0
1 45 -61 0
-1 45 61 0
1 -45 61 0
-62 -4 -63 0
62 4 -63 0
-62 4 63 0
62 -4 63 0
53 -17 -64 0
-53 17 -64 0
53 17 64 0
-53 -17 64 0
63 64 -65 0
-63 -64 -65 0
63 -64 65 0
-63 64 65 0
66 61 0
66 -65 0
-61 65 -66 0
-67 60 0
-67 -66 0
-60 66 67 0
-68 52 0
-68 -67 0
-52 67 68 0
-69 -4 0
-69 27 0
4 -27 69 0
70 69 0
70 -37 0
-69 37 -70 0
-71 28 -72 0
71 -28 -72 0
-71 -28 72 0
71 28 72 0
-74 -72 0
-74 -73 0
72 73 74 0
-75 -71 0
-75 12 0
71 -12 75 0
74 -75 -76 0
-74 75 -76 0
74 75 76 0
-74 -75 76 0
-77 70 0
-77 76 0
-70 -76 77 0
68 -77 -78 0
-68 77 -78 0
68 77 78 0
-68 -77 78 0
79 -24 0
79 78 0
24 -78 -79 0
-80 -48 0
-80 44 0
48 -44 80 0
-82 2 0
-82 81 0
-2 -81 82 0
-83 -18 0
-83 -62 0
18 62 83 0
84 -83 0
84 55 0
83 -55 -84 0
-85 -1 0
-85 -84 0
1 84 85 0
87 -15 0
87 86 0
15 -86 -87 0
-88 85 0
-88 87 0
-85 -87 88 0
-41 7 -89 0
41 -7 -89 0
-41 -7 89 0
41 7 89 0
90 -89 0
90 -86 0
89 86 -90 0
-88 90 -91 0
88 -90 -91 0
-88 -90 91 0
88 90 91 0
-92 -82 0
-92 -91 0
82 91 92 0
-93 80 0
-93 92 0
-80 -92 93 0
-64 7 -94 0
64 -7 -94 0
-64 -7 94 0
64 7 94 0
-95 94 0
-95 27 0
-94 -27 95 0
-96 8 0
-96 43 0
-8 -43 96 0
97 95 0
97 96 0
-95 -96 -97 0
98 81 0
98 8 0
-81 -8 -98 0
99 -98 0
99 -30 0
98 30 -99 0
-100 -54 0
-100 -9 0
54 9 100 0
-101 99 0
-101 -100 0
-99 100 101 0
-102 97 0
-102 101 0
-97 -101 102 0
103 -12 -104 0
-103 12 -104 0
103 12 104 0
-103 -12 104 0
-46 105 -106 0
46 -105 -106 0
-46 -105 106 0
46 105 106 0
107 104 0
107 106 0
-104 -106 -107 0
-108 102 0
-108 107 0
-102 -107 108 0
-109 -93 0
-109 -108 0
93 108 109 0
-110 -12 0
-110 8 0
12 -8 110 0
-111 -64 0
-111 110 0
64 -110 111 0
112 -6 0
112 43 0
6 -43 -112 0
-113 -111 0
-113 112 0
111 -112 113 0
-115 -114 0
-115 110 0
114 -110 115 0
116 53 0
116 28 0
-53 -28 -116 0
-115 116 -117 0
115 -116 -117 0
-115 -116 117 0
115 116 117 0
-118 -103 0
-118 17 0
103 -17 118 0
120 -105 0
120 -119 0
105 119 -120 0
120 45 -121 0
-120 -45 -121 0
120 -45 121 0
-120 45 121 0
-121 56 -122 0
121 -56 -122 0
-121 -56 122 0
121 56 122 0
-123 -118 0
-123 122 0
118 -122 123 0
-124 -54 0
-124 16 0
54 -16 124 0
-124 -47 -125 0
124 47 -125 0
-124 47 125 0
124 -47 125 0
-126 36 0
-126 125 0
-36 -125 126 0
127 -123 0
127 126 0
123 -126 -127 0
-117 127 -128 0
117 -127 -128 0
-117 -127 128 0
117 127 128 0
-129 -113 0
-129 -128 0
113 128 129 0
-130 86 0
-130 -105 0
-86 105 130 0
-131 -73 0
-131 -105 0
73 105 131 0
-132 131 0
-132 131 0
-131 132 0
-133 -132 0
-133 -18 0
132 18 133 0
134 21 0
134 -73 0
-21 73 -134 0
-135 -53 0
-135 48 0
53 -48 135 0
134 -135 -136 0
-134 135 -136 0
134 135 136 0
-134 -135 136 0
137 -133 0
137 136 0
133 -136 -137 0
-138 130 0
-138 -137 0
-130 137 138 0
-129 138 -139 0
129 -138 -139 0
-129 -138 139 0
129 138 139 0
141 -140 0
141 -10 0
140 10 -141 0
-142 -141 0
-142 -15 0
141 15 142 0
143 -64 0
143 -64 0
64 -143 0
144 -141 0
144 143 0
141 -143 -144 0
145 142 0
145 144 0
-142 -144 -145 0
146 63 0
146 -81 0
-63 81 -146 0
-42 146 -147 0
42 -146 -147 0
-42 -146 147 0
42 146 147 0
-148 -145 0
-148 -147 0
145 147 148 0
149 -124 0
149 57 0
124 -57 -149 0
-83 27 -150 0
83 -27 -150 0
-83 -27 150 0
83 27 150 0
151 -150 0
151 63 0
150 -63 -151 0
119 -151 -152 0
-119 151 -152 0
119 151 152 0
-119 -151 152 0
-149 152 -153 0
149 -152 -153 0
-149 -152 153 0
149 152 153 0
154 148 0
154 -153 0
-148 153 -154 0
-155 -139 0
-155 154 0
139 -154 155 0
109 -155 -156 0
-109 155 -156 0
109 155 156 0
-109 -155 156 0
-157 79 0
-157 -156 0
-79 156 157 0
158 15 0
158 -48 0
-15 48 -158 0
159 -157 0
159 -158 0
157 158 -159 0
-11 114 133 -148 -147 -15 -68 1 115 -98 0
91 -78 -75 -54 -90 -79 46 -129 146 -48 0
144 -21 138 -127 0
121 64 -82 -9 -104 0
-142 75 103 15 -16 -58 -2 -112 0
76 143 79 62 -130 10 -74 -58 0
105 129 -77 -14 147 -25 0
-59 -71 -66 -144 10 147 0
-74 138 -35 -33 57 -22 -81 156 0
-116 64 155 63 0
-125 -28 -113 126 0
-77 -87 30 0
50 128 -26 -104 -37 144 119 -92 14 0
-86 -63 145 -35 0
23 74 5 148 50 31 0
-97 154 -20 159 -94 -131 -12 0
46 -156 -23 -16 60 -85 0
149 132 150 -85 33 -156 0
-12 133 88 13 49 -136 -62 3 0
56 144 5 -147 10 0
59 -137 136 0
144 -70 24 -142 127 -68 23 0
121 -143 -152 0
-17 30 137 -131 98 75 70 0
-111 24 -147 -45 -154 0
29 -106 128 -155 -54 129 0
-119 -150 -118 -137 -1 72 -88 0
123 -151 50 58 100 0
-103 -12 132 147 -115 0
-17 94 -151 -108 0
99 130 158 -123 0
147 22 102 -90 47 -16 -30 0
149 91 90 -101 -121 39 -129 98 0
-6 39 36 -107 48 82 -9 49 -42 -63 0
25 55 143 -12 -63 45 -23 -132 0
149 -158 159 116 -51 -93 43 -145 -128 0
-78 152 149 -87 155 -157 105 -117 -82 0
-126 53 -62 86 96 -117 22 19 -59 0
-111 -87 115 -158 -47 -69 103 0
-31 147 -115 0
-5 -37 -74 87 0
-23 -59 -73 46 90 76 -35 12 -139 0
-6 54 -113 -19 -156 -94 37 24 -7 -143 0
-159 90 -117 22 -116 -158 0
-4 43 124 119 -49 -83 -57 -20 11 81 0
23 34 -118 143 0
-94 15 -87 1 -62 -52 -45 -142 -31 0
-97 -53 -79 126 157 60 -112 68 -83 0
102 -71 23 -94 0
81 -119 -116 -72 54 113 -90 -39 -98 0
155 -90 -76 4 0
-88 108 -137 0
2 27 134 -125 0
-109 57 -50 -125 -64 17 29 96 0
19 122 -41 0
124 55 -45 -96 -93 0
-101 141 -108 13 89 -48 123 -154 -78 0
126 159 -39 -3 -83 -66 -42 -79 123 0
-55 84 -131 -68 -36 0
-4 -87 133 -141 -103 138 -49 88 -9 -145 0
-103 108 84 -57 -44 0
-73 133 59 82 -46 63 0
54 -26 92 -124 141 25 -145 86 0
158 66 -19 -145 -21 54 -76 -15 -48 -28 0
-91 -102 -38 37 -55 0
56 78 -118 23 95 47 156 -66 0
-80 -47 -112 105 -42 -92 118 0
45 -61 145 127 118 149 0
-153 -100 79 60 129 89 -46 45 -48 0
86 -66 74 -21 28 27 -144 0
8 -151 -38 -135 -80 -120 41 105 31 64 0
128 -145 -38 -45 80 21 6 40 0
-122 121 41 60 -38 62 0
-30 -12 -144 -25 0
97 -109 138 0
15 25 -155 34 -26 -149 -13 -150 -108 0
159 0
